************************************************************************
file with basedata            : n/a
initial value random generator: n/a
************************************************************************
projects                      :  1
jobs (incl. supersource/sink ):  122
horizon                       :  646
RESOURCES
  - renewable                 :  4   R
  - nonrenewable              :  0   N
  - doubly constrained        :  0   D
************************************************************************
PROJECT INFORMATION:
pronr.  #jobs rel.date duedate tardcost  MPM-Time
    1    120      0      103       76      103
************************************************************************
PRECEDENCE RELATIONS:
jobnr.    #modes  #successors   successors
   1        1          3           2   3   4
   2        1          3           6   7  45
   3        1          3          12  14  26
   4        1          3           5   8  64
   5        1          3           9  39  43
   6        1          2          10  39
   7        1          2          42  75
   8        1          3          11  22  32
   9        1          1          21
  10        1          3          27  53  70
  11        1          3          13  33  46
  12        1          3          16  17  18
  13        1          2          15  20
  14        1          3          65  91 118
  15        1          3          61  99 111
  16        1          3          25  30  36
  17        1          1          23
  18        1          2          19  30
  19        1          1          28
  20        1          1          52
  21        1          3          60  61  69
  22        1          2          60 113
  23        1          3          24  31  35
  24        1          3          34  40  57
  25        1          1          74
  26        1          3          29 102 114
  27        1          3          41  50  63
  28        1          1          44
  29        1          2          36  52
  30        1          3          35  81 121
  31        1          3          38  92 116
  32        1          1          48
  33        1          1         103
  34        1          1          60
  35        1          3          45  47  55
  36        1          1          37
  37        1          2          51  53
  38        1          1          66
  39        1          3          67  83  95
  40        1          3          54  72  76
  41        1          1          94
  42        1          2          49  55
  43        1          2          55  76
  44        1          1         100
  45        1          1          50
  46        1          2          89 121
  47        1          2          71  82
  48        1          3          66  86  97
  49        1          3          50  58  87
  50        1          1          62
  51        1          1          77
  52        1          3          53  94 111
  53        1          1          56
  54        1          1          98
  55        1          2          67  85
  56        1          3          57  61  71
  57        1          2          82  92
  58        1          3          59  68  73
  59        1          2          80  94
  60        1          2          72  85
  61        1          1         110
  62        1          2          65  88
  63        1          2          78 100
  64        1          2          73  91
  65        1          1         104
  66        1          1          79
  67        1          3          73  79  86
  68        1          1          83
  69        1          3          76  81  86
  70        1          1         107
  71        1          1          92
  72        1          2          80 100
  73        1          1          84
  74        1          1         109
  75        1          1          90
  76        1          3          84  99 105
  77        1          2          80  89
  78        1          2          88  98
  79        1          1          90
  80        1          1         121
  81        1          2          85 120
  82        1          2          93  98
  83        1          1         108
  84        1          3          93 107 113
  85        1          2         101 110
  86        1          1         106
  87        1          2          90  99
  88        1          3         104 105 115
  89        1          1          91
  90        1          3          93 101 114
  91        1          1         109
  92        1          2          96 115
  93        1          1          96
  94        1          1         115
  95        1          2         108 112
  96        1          1         106
  97        1          3         101 102 118
  98        1          1         112
  99        1          1         104
 100        1          1         102
 101        1          1         103
 102        1          2         103 112
 103        1          2         106 108
 104        1          1         113
 105        1          2         107 110
 106        1          1         117
 107        1          2         109 114
 108        1          1         111
 109        1          1         116
 110        1          1         116
 111        1          1         119
 112        1          1         120
 113        1          1         117
 114        1          1         120
 115        1          1         118
 116        1          1         117
 117        1          1         119
 118        1          1         119
 119        1          1         122
 120        1          1         122
 121        1          1         122
 122        1          0        
************************************************************************
REQUESTS/DURATIONS:
jobnr. mode duration  R 1  R 2  R 3  R 4
------------------------------------------------------------------------
  1      1     0    
  2      1     6       0   0   0   0   0   0
                       0   0   0   0   0   0
                       1   1   1   1   1   1
                       0   0   0   0   0   0
  3      1     8       0   0   0   0   0   0   0   0
                       0   0   0   0   0   0   0   0
                       0   0   0   0   0   0   0   0
                       0   4   4   4   4   0   4   4
  4      1     5       0   0   0   0   0
                       0   0   0   0   0
                      10  10  10  10  10
                       0   0   0   0   0
  5      1     4       0   9   9   9
                       0   0   0   0
                       0   0   0   0
                       0   0   0   0
  6      1     2       0   8
                       0   0
                       0   0
                       0   0
  7      1     3       0   0   0
                       3   3   0
                       0   0   0
                       0   0   0
  8      1     3       0   0   0
                       0   0   0
                       0   0   0
                       4   0   4
  9      1     3       0   0   0
                       0   5   5
                       0   0   0
                       0   0   0
 10      1     5       0   0   0   0   0
                       0   0   0   0   0
                       0   0   0   0   0
                       8   8   8   8   8
 11      1     2       9   9
                       0   0
                       0   0
                       0   0
 12      1     8       0   0   0   0   0   0   0   0
                       0   0   0   0   0   0   0   0
                       0   0   0   0   0   0   0   0
                       6   6   6   6   6   6   6   6
 13      1     2       0   0
                       0   0
                       7   7
                       0   0
 14      1     3       0   0   0
                       1   1   1
                       0   0   0
                       0   0   0
 15      1     4       0   0   0   0
                       0   0   0   0
                       2   2   2   2
                       0   0   0   0
 16      1    10       0   0   0   0   0   0   0   0   0   0
                       0   0   0   0   0   0   0   0   0   0
                       0   0   0   0   0   0   0   0   0   0
                       3   0   3   3   3   3   3   3   3   3
 17      1     8       0   0   0   0   0   0   0   0
                       0   0   0   0   0   0   0   0
                       9   9   0   9   0   9   0   9
                       0   0   0   0   0   0   0   0
 18      1     8       8   8   8   8   8   8   8   8
                       0   0   0   0   0   0   0   0
                       0   0   0   0   0   0   0   0
                       0   0   0   0   0   0   0   0
 19      1     3       0   0   0
                       0   0   0
                      10  10  10
                       0   0   0
 20      1     1       0
                       6
                       0
                       0
 21      1     8       5   5   0   5   5   0   5   5
                       0   0   0   0   0   0   0   0
                       0   0   0   0   0   0   0   0
                       0   0   0   0   0   0   0   0
 22      1     5       0   0   0   0   0
                       3   3   3   3   3
                       0   0   0   0   0
                       0   0   0   0   0
 23      1     3       0   0   0
                       0   0   0
                       6   6   0
                       0   0   0
 24      1     9       0   0   0   0   0   0   0   0   0
                       0   0   0   0   0   0   0   0   0
                       0   0   0   0   0   0   0   0   0
                       9   9   0   9   9   9   9   0   0
 25      1     1       0
                       0
                       0
                       0
 26      1     8       0   0   0   0   0   0   0   0
                       0   0   0   0   0   0   0   0
                       8   8   8   8   8   8   0   8
                       0   0   0   0   0   0   0   0
 27      1     2       0   0
                       0   0
                       2   2
                       0   0
 28      1     5       0   0   0   0   0
                       0   0   0   0   0
                       0   0   0   0   0
                       1   0   1   1   1
 29      1     5       5   5   5   0   5
                       0   0   0   0   0
                       0   0   0   0   0
                       0   0   0   0   0
 30      1     4       0   0   0   0
                       0   0   0   0
                       0   0   0   0
                       0   0   6   6
 31      1     9       0   0   0   0   0   0   0   0   0
                       8   8   8   8   8   8   8   0   8
                       0   0   0   0   0   0   0   0   0
                       0   0   0   0   0   0   0   0   0
 32      1     5       0   0   0   0   0
                       0   0   0   0   0
                       0   0   0   0   0
                       6   0   6   6   6
 33      1     3       2   2   2
                       0   0   0
                       0   0   0
                       0   0   0
 34      1     7       0   0   0   0   0   0   0
                       0   0   0   0   0   0   0
                       0   0   0   0   0   0   0
                       6   6   6   6   0   6   6
 35      1     9       0   0   0   0   0   0   0   0   0
                       0   0   0   0   0   0   0   0   0
                       0   4   4   4   4   4   4   4   4
                       0   0   0   0   0   0   0   0   0
 36      1     3       8   8   8
                       0   0   0
                       0   0   0
                       0   0   0
 37      1     6       0   0   0   0   0   0
                       0   0   0   0   0   0
                       0   0   0   0   0   0
                      10  10  10   0  10  10
 38      1     2       0   0
                       0   9
                       0   0
                       0   0
 39      1     4       0   0   0   0
                       0   0   0   0
                       0   0   0   0
                       6   6   6   0
 40      1     3       0   0   0
                       3   3   0
                       0   0   0
                       0   0   0
 41      1     9       0   0   0   0   0   0   0   0   0
                       0   0   0   0   0   0   0   0   0
                       0   0   0   0   0   0   0   0   0
                       5   0   5   5   5   5   5   5   5
 42      1     6       9   9   9   0   9   9
                       0   0   0   0   0   0
                       0   0   0   0   0   0
                       0   0   0   0   0   0
 43      1     3       0   0   0
                       8   8   8
                       0   0   0
                       0   0   0
 44      1     4       0   0   0   0
                       4   4   4   4
                       0   0   0   0
                       0   0   0   0
 45      1     9       0   0   0   0   0   0   0   0   0
                       0   0   0   0   0   0   0   0   0
                       0   0   0   0   0   0   0   0   0
                       9   9   9   9   9   9   9   9   9
 46      1    10       0   0   0   0   0   0   0   0   0   0
                       5   5   0   5   5   5   5   5   0   5
                       0   0   0   0   0   0   0   0   0   0
                       0   0   0   0   0   0   0   0   0   0
 47      1     8       0   0   0   0   0   0   0   0
                       5   5   0   5   5   5   5   5
                       0   0   0   0   0   0   0   0
                       0   0   0   0   0   0   0   0
 48      1    10       0   0   0   0   0   0   0   0   0   0
                       0   0   0   0   0   0   0   0   0   0
                       0   0   0   0   0   0   0   0   0   0
                       0   3   3   3   3   3   0   3   3   3
 49      1     4       0   0   0   0
                       0   0   0   0
                       0   3   3   0
                       0   0   0   0
 50      1     9       9   9   9   0   9   9   9   9   9
                       0   0   0   0   0   0   0   0   0
                       0   0   0   0   0   0   0   0   0
                       0   0   0   0   0   0   0   0   0
 51      1     5       0   0   0   0   0
                       0   0   5   5   5
                       0   0   0   0   0
                       0   0   0   0   0
 52      1     7       0   0   0   0   0   0   0
                       7   7   7   7   7   7   7
                       0   0   0   0   0   0   0
                       0   0   0   0   0   0   0
 53      1     4       0   0   0   0
                       0   0   0   0
                       9   9   9   9
                       0   0   0   0
 54      1     3       0   0   0
                       0   0   0
                       2   2   2
                       0   0   0
 55      1     4       0   0   0   0
                       0   0   0   0
                       0   0   0   0
                       0   0   1   0
 56      1     9       0   0   0   0   0   0   0   0   0
                       0   0   0   0   0   0   0   0   0
                       0   0   0   0   0   0   0   0   0
                       3   3   3   3   0   3   0   3   3
 57      1     8       0   0   0   0   0   0   0   0
                       9   9   9   9   9   9   9   9
                       0   0   0   0   0   0   0   0
                       0   0   0   0   0   0   0   0
 58      1     1       0
                       0
                       0
                       9
 59      1     9       0   0   0   0   0   0   0   0   0
                       0   0   0   0   0   0   0   0   0
                       4   4   4   0   4   4   0   0   0
                       0   0   0   0   0   0   0   0   0
 60      1     6       0   0   0   0   0   0
                       0   0   0   0   0   0
                       4   4   4   4   0   4
                       0   0   0   0   0   0
 61      1     2       0   0
                       0   0
                       0   0
                       6   6
 62      1    10       3   3   3   3   3   3   3   0   3   3
                       0   0   0   0   0   0   0   0   0   0
                       0   0   0   0   0   0   0   0   0   0
                       0   0   0   0   0   0   0   0   0   0
 63      1     7       1   1   0   1   1   1   1
                       0   0   0   0   0   0   0
                       0   0   0   0   0   0   0
                       0   0   0   0   0   0   0
 64      1     4       0   0   0   0
                       0   0   0   0
                       7   7   7   7
                       0   0   0   0
 65      1     1       0
                       0
                       0
                       8
 66      1     1       0
                       0
                       0
                       0
 67      1     2       0   0
                       0   0
                       0   0
                       7   7
 68      1     2       5   5
                       0   0
                       0   0
                       0   0
 69      1     6       5   5   5   5   5   5
                       0   0   0   0   0   0
                       0   0   0   0   0   0
                       0   0   0   0   0   0
 70      1     1       6
                       0
                       0
                       0
 71      1    10       0   0   0   0   0   0   0   0   0   0
                       0   0   0   0   0   0   0   0   0   0
                       1   1   0   1   1   1   1   1   1   1
                       0   0   0   0   0   0   0   0   0   0
 72      1     5       0   0   0   0   0
                       0   0   0   0   0
                       5   0   0   5   5
                       0   0   0   0   0
 73      1     9       0   2   2   2   2   2   2   2   2
                       0   0   0   0   0   0   0   0   0
                       0   0   0   0   0   0   0   0   0
                       0   0   0   0   0   0   0   0   0
 74      1     6       0   0   0   0   0   0
                       7   7   7   7   7   0
                       0   0   0   0   0   0
                       0   0   0   0   0   0
 75      1     2       0   0
                       0   0
                       3   3
                       0   0
 76      1     8       0   0   0   0   0   0   0   0
                       6   6   6   6   6   6   6   0
                       0   0   0   0   0   0   0   0
                       0   0   0   0   0   0   0   0
 77      1     8       0   0   0   0   0   0   0   0
                       7   7   7   7   7   7   7   0
                       0   0   0   0   0   0   0   0
                       0   0   0   0   0   0   0   0
 78      1     5       0   0   0   0   0
                       0   0   0   0   0
                       0   0   0   0   0
                       3   0   3   3   3
 79      1     1       0
                       0
                       0
                       7
 80      1    10       0   7   7   7   7   7   7   7   7   0
                       0   0   0   0   0   0   0   0   0   0
                       0   0   0   0   0   0   0   0   0   0
                       0   0   0   0   0   0   0   0   0   0
 81      1     8       5   5   5   5   0   5   5   5
                       0   0   0   0   0   0   0   0
                       0   0   0   0   0   0   0   0
                       0   0   0   0   0   0   0   0
 82      1     1       0
                       0
                       0
                       0
 83      1     8       0   0   0   0   0   0   0   0
                       0   0   0   0   0   0   0   0
                       7   7   7   0   0   0   7   7
                       0   0   0   0   0   0   0   0
 84      1     8       2   2   2   2   2   2   2   2
                       0   0   0   0   0   0   0   0
                       0   0   0   0   0   0   0   0
                       0   0   0   0   0   0   0   0
 85      1     2       0   0
                       0   0
                       5   0
                       0   0
 86      1     4       0   0   0   0
                       2   2   2   2
                       0   0   0   0
                       0   0   0   0
 87      1     5       0   0   0   0   0
                       0   0   0   0   0
                       0   5   5   0   0
                       0   0   0   0   0
 88      1     8       0   6   6   0   6   6   6   6
                       0   0   0   0   0   0   0   0
                       0   0   0   0   0   0   0   0
                       0   0   0   0   0   0   0   0
 89      1     5       0   0   0   0   0
                       5   5   5   5   5
                       0   0   0   0   0
                       0   0   0   0   0
 90      1     8       0   0   0   0   0   0   0   0
                       0   0   0   0   0   0   0   0
                       0   0   0   0   0   0   0   0
                       7   7   7   7   7   7   7   7
 91      1     3       0   0   0
                       0   0   0
                       0   6   6
                       0   0   0
 92      1    10       0   0   0   0   0   0   0   0   0   0
                       0   0   0   0   0   0   0   0   0   0
                       2   2   2   2   2   2   2   2   2   2
                       0   0   0   0   0   0   0   0   0   0
 93      1     3       0   0   0
                       0   0   0
                       0   0   0
                      10  10  10
 94      1     9       0   0   0   0   0   0   0   0   0
                       0   6   6   6   6   6   0   0   0
                       0   0   0   0   0   0   0   0   0
                       0   0   0   0   0   0   0   0   0
 95      1     3       0   0   0
                       0   4   4
                       0   0   0
                       0   0   0
 96      1     5       0   0   0   0   0
                       0   0   0   0   0
                       7   7   7   0   0
                       0   0   0   0   0
 97      1     8       0   0   0   0   0   0   0   0
                       0   0   0   0   0   0   0   0
                       0   7   7   7   7   0   7   7
                       0   0   0   0   0   0   0   0
 98      1     1       0
                       0
                       0
                      10
 99      1     4       0   0   0   0
                       0   0   0   0
                       1   1   0   1
                       0   0   0   0
100      1    10       0   0   0   0   0   0   0   0   0   0
                       0   0   0   0   0   0   0   0   0   0
                       5   5   5   5   5   0   5   5   5   5
                       0   0   0   0   0   0   0   0   0   0
101      1     4       8   8   0   8
                       0   0   0   0
                       0   0   0   0
                       0   0   0   0
102      1     1       0
                       0
                       0
                       0
103      1     4       0   0   0   0
                       3   3   0   0
                       0   0   0   0
                       0   0   0   0
104      1    10       0   0   0   0   0   0   0   0   0   0
                       0   0   0   0   0   0   0   0   0   0
                       0   0   0   0   0   0   0   0   0   0
                       0   3   3   3   3   0   3   3   3   3
105      1     3       0   0   0
                       0   0   0
                       0   0   0
                       0   1   1
106      1    10       0   0   0   0   0   0   0   0   0   0
                       0   4   0   0   4   4   4   4   4   0
                       0   0   0   0   0   0   0   0   0   0
                       0   0   0   0   0   0   0   0   0   0
107      1     2       0   0
                       1   1
                       0   0
                       0   0
108      1     9       0   0   0   0   0   0   0   0   0
                       4   4   4   4   4   4   0   0   4
                       0   0   0   0   0   0   0   0   0
                       0   0   0   0   0   0   0   0   0
109      1     7       0   0   0   0   0   0   0
                       0   0   0   0   0   0   0
                       0   0   0   0   0   0   0
                       0   7   7   7   0   0   0
110      1     4      10  10  10  10
                       0   0   0   0
                       0   0   0   0
                       0   0   0   0
111      1     1       0
                       0
                       9
                       0
112      1     6       0   0   0   0   0   0
                       0   0   0   0   0   0
                       0   0   0   0   0   0
                       2   2   2   2   2   2
113      1     1       5
                       0
                       0
                       0
114      1     5       0   0   0   0   0
                       0   0   0   0   0
                       5   5   5   0   5
                       0   0   0   0   0
115      1     8       0   0   0   0   0   0   0   0
                       0   0   0   0   0   0   0   0
                       0   0   0   0   0   0   0   0
                       4   4   4   4   0   4   4   4
116      1     6       0   0   0   0   0   0
                       0   0   0   0   0   0
                       7   7   0   7   7   0
                       0   0   0   0   0   0
117      1     4       9   9   9   9
                       0   0   0   0
                       0   0   0   0
                       0   0   0   0
118      1     8       0   0   0   0   0   0   0   0
                       4   4   4   4   4   4   4   0
                       0   0   0   0   0   0   0   0
                       0   0   0   0   0   0   0   0
119      1     6       0   0   0   0   0   0
                       0   0   0   0   0   0
                       0   0   0   0   0   0
                       9   9   9   0   9   9
120      1    10       0   0   0   0   0   0   0   0   0   0
                       5   5   5   5   5   5   5   5   0   5
                       0   0   0   0   0   0   0   0   0   0
                       0   0   0   0   0   0   0   0   0   0
121      1     7       8   8   8   8   8   8   8
                       0   0   0   0   0   0   0
                       0   0   0   0   0   0   0
                       0   0   0   0   0   0   0
122      1     0    
************************************************************************
RESOURCEAVAILABILITIES:
  R 1  R 2  R 3  R 4

  15  15   0  15  15  15   0  15  15  15  15  15  15  15  15   0   0  15  15  15  15  15  15  15   0  15  15  15  15  15  15  15  15  15  15   0   0  15   0   0  15  15  15  15  15  15  15  15   0  15   0  15  15  15  15  15  15  15  15   0  15  15  15  15  15  15   0   0  15  15   0  15  15  15   0  15   0  15  15  15  15  15  15  15  15  15  15  15  15  15  15  15  15  15  15  15  15   0   0   0  15  15  15  15  15  15  15  15  15   0  15  15  15  15  15  15  15  15   0  15  15  15  15   0  15   0  15  15  15  15   0  15  15  15  15  15   0  15  15  15  15   0  15  15  15  15  15   0  15  15   0  15   0  15   0  15  15   0  15  15  15  15  15   0  15  15  15  15  15  15  15  15  15  15  15  15  15  15  15  15  15  15  15  15  15  15  15  15  15   0  15   0  15  15  15  15  15  15  15  15   0  15  15  15  15   0  15  15   0  15   0  15  15  15  15  15   0  15  15  15  15  15  15  15   0  15  15  15  15  15  15   0  15  15  15  15  15   0  15  15  15  15  15  15  15   0  15  15   0   0  15  15  15  15  15  15  15  15  15  15  15  15  15  15  15   0  15  15  15  15   0  15  15  15  15  15  15   0  15  15  15   0   0  15  15  15   0  15  15   0  15  15  15  15  15  15  15   0   0  15  15  15  15  15  15  15  15  15   0   0  15  15  15  15  15  15   0  15  15   0  15  15  15  15  15  15   0   0  15  15  15  15   0  15   0  15   0   0  15  15   0  15  15   0   0   0   0  15  15  15  15  15  15  15  15   0  15  15  15  15   0  15  15  15  15   0  15  15  15  15  15  15  15   0  15  15  15  15  15  15   0  15  15  15  15  15  15  15  15  15   0  15   0  15  15  15  15  15  15   0   0   0  15  15  15   0  15  15  15   0  15  15  15  15  15   0  15  15  15  15  15   0  15  15  15  15  15  15  15  15   0   0  15  15  15  15  15   0  15  15  15  15  15  15   0  15  15  15  15  15  15  15  15  15  15  15   0  15  15  15  15   0  15  15  15  15  15  15  15  15  15   0   0   0   0  15   0  15  15   0  15  15   0   0  15  15  15   0  15  15  15   0  15   0  15  15   0  15  15  15  15  15  15  15  15   0  15  15  15  15  15   0  15  15  15  15  15  15  15  15   0  15  15   0   0  15  15  15  15  15  15   0   0   0  15  15  15  15  15  15  15  15  15  15  15   0  15  15  15   0  15  15  15   0   0  15  15  15  15  15   0   0  15  15   0  15  15   0  15   0   0  15  15  15   0   0  15   0  15  15  15  15  15   0  15  15  15  15   0  15   0   0  15  15  15  15  15  15  15  15  15  15   0  15  15  15  15  15   0  15  15   0  15  15  15  15  15  15   0   0  15  15  15  15  15  15  15  15  15  15   0  15  15  15   0  15  15  15  15   0  15  15  15  15  15   0

  14  14   0  14  14  14   0  14  14  14  14  14  14  14  14   0   0  14  14  14  14  14  14  14   0  14  14  14  14  14  14  14  14  14  14   0   0  14   0   0  14  14  14  14  14  14  14  14   0  14   0  14  14  14  14  14  14  14  14   0  14  14  14  14  14  14   0   0  14  14   0  14  14  14   0  14   0  14  14  14  14  14  14  14  14  14  14  14  14  14  14  14  14  14  14  14  14   0   0   0  14  14  14  14  14  14  14  14  14   0  14  14  14  14  14  14  14  14   0  14  14  14  14   0  14   0  14  14  14  14   0  14  14  14  14  14   0  14  14  14  14   0  14  14  14  14  14   0  14  14   0  14   0  14   0  14  14   0  14  14  14  14  14   0  14  14  14  14  14  14  14  14  14  14  14  14  14  14  14  14  14  14  14  14  14  14  14  14  14   0  14   0  14  14  14  14  14  14  14  14   0  14  14  14  14   0  14  14   0  14   0  14  14  14  14  14   0  14  14  14  14  14  14  14   0  14  14  14  14  14  14   0  14  14  14  14  14   0  14  14  14  14  14  14  14   0  14  14   0   0  14  14  14  14  14  14  14  14  14  14  14  14  14  14  14   0  14  14  14  14   0  14  14  14  14  14  14   0  14  14  14   0   0  14  14  14   0  14  14   0  14  14  14  14  14  14  14   0   0  14  14  14  14  14  14  14  14  14   0   0  14  14  14  14  14  14   0  14  14   0  14  14  14  14  14  14   0   0  14  14  14  14   0  14   0  14   0   0  14  14   0  14  14   0   0   0   0  14  14  14  14  14  14  14  14   0  14  14  14  14   0  14  14  14  14   0  14  14  14  14  14  14  14   0  14  14  14  14  14  14   0  14  14  14  14  14  14  14  14  14   0  14   0  14  14  14  14  14  14   0   0   0  14  14  14   0  14  14  14   0  14  14  14  14  14   0  14  14  14  14  14   0  14  14  14  14  14  14  14  14   0   0  14  14  14  14  14   0  14  14  14  14  14  14   0  14  14  14  14  14  14  14  14  14  14  14   0  14  14  14  14   0  14  14  14  14  14  14  14  14  14   0   0   0   0  14   0  14  14   0  14  14   0   0  14  14  14   0  14  14  14   0  14   0  14  14   0  14  14  14  14  14  14  14  14   0  14  14  14  14  14   0  14  14  14  14  14  14  14  14   0  14  14   0   0  14  14  14  14  14  14   0   0   0  14  14  14  14  14  14  14  14  14  14  14   0  14  14  14   0  14  14  14   0   0  14  14  14  14  14   0   0  14  14   0  14  14   0  14   0   0  14  14  14   0   0  14   0  14  14  14  14  14   0  14  14  14  14   0  14   0   0  14  14  14  14  14  14  14  14  14  14   0  14  14  14  14  14   0  14  14   0  14  14  14  14  14  14   0   0  14  14  14  14  14  14  14  14  14  14   0  14  14  14   0  14  14  14  14   0  14  14  14  14  14   0

  17  17   0  17  17  17   0  17  17  17  17  17  17  17  17   0   0  17  17  17  17  17  17  17   0  17  17  17  17  17  17  17  17  17  17   0   0  17   0   0  17  17  17  17  17  17  17  17   0  17   0  17  17  17  17  17  17  17  17   0  17  17  17  17  17  17   0   0  17  17   0  17  17  17   0  17   0  17  17  17  17  17  17  17  17  17  17  17  17  17  17  17  17  17  17  17  17   0   0   0  17  17  17  17  17  17  17  17  17   0  17  17  17  17  17  17  17  17   0  17  17  17  17   0  17   0  17  17  17  17   0  17  17  17  17  17   0  17  17  17  17   0  17  17  17  17  17   0  17  17   0  17   0  17   0  17  17   0  17  17  17  17  17   0  17  17  17  17  17  17  17  17  17  17  17  17  17  17  17  17  17  17  17  17  17  17  17  17  17   0  17   0  17  17  17  17  17  17  17  17   0  17  17  17  17   0  17  17   0  17   0  17  17  17  17  17   0  17  17  17  17  17  17  17   0  17  17  17  17  17  17   0  17  17  17  17  17   0  17  17  17  17  17  17  17   0  17  17   0   0  17  17  17  17  17  17  17  17  17  17  17  17  17  17  17   0  17  17  17  17   0  17  17  17  17  17  17   0  17  17  17   0   0  17  17  17   0  17  17   0  17  17  17  17  17  17  17   0   0  17  17  17  17  17  17  17  17  17   0   0  17  17  17  17  17  17   0  17  17   0  17  17  17  17  17  17   0   0  17  17  17  17   0  17   0  17   0   0  17  17   0  17  17   0   0   0   0  17  17  17  17  17  17  17  17   0  17  17  17  17   0  17  17  17  17   0  17  17  17  17  17  17  17   0  17  17  17  17  17  17   0  17  17  17  17  17  17  17  17  17   0  17   0  17  17  17  17  17  17   0   0   0  17  17  17   0  17  17  17   0  17  17  17  17  17   0  17  17  17  17  17   0  17  17  17  17  17  17  17  17   0   0  17  17  17  17  17   0  17  17  17  17  17  17   0  17  17  17  17  17  17  17  17  17  17  17   0  17  17  17  17   0  17  17  17  17  17  17  17  17  17   0   0   0   0  17   0  17  17   0  17  17   0   0  17  17  17   0  17  17  17   0  17   0  17  17   0  17  17  17  17  17  17  17  17   0  17  17  17  17  17   0  17  17  17  17  17  17  17  17   0  17  17   0   0  17  17  17  17  17  17   0   0   0  17  17  17  17  17  17  17  17  17  17  17   0  17  17  17   0  17  17  17   0   0  17  17  17  17  17   0   0  17  17   0  17  17   0  17   0   0  17  17  17   0   0  17   0  17  17  17  17  17   0  17  17  17  17   0  17   0   0  17  17  17  17  17  17  17  17  17  17   0  17  17  17  17  17   0  17  17   0  17  17  17  17  17  17   0   0  17  17  17  17  17  17  17  17  17  17   0  17  17  17   0  17  17  17  17   0  17  17  17  17  17   0

  15  15   0  15  15  15   0  15  15  15  15  15  15  15  15   0   0  15  15  15  15  15  15  15   0  15  15  15  15  15  15  15  15  15  15   0   0  15   0   0  15  15  15  15  15  15  15  15   0  15   0  15  15  15  15  15  15  15  15   0  15  15  15  15  15  15   0   0  15  15   0  15  15  15   0  15   0  15  15  15  15  15  15  15  15  15  15  15  15  15  15  15  15  15  15  15  15   0   0   0  15  15  15  15  15  15  15  15  15   0  15  15  15  15  15  15  15  15   0  15  15  15  15   0  15   0  15  15  15  15   0  15  15  15  15  15   0  15  15  15  15   0  15  15  15  15  15   0  15  15   0  15   0  15   0  15  15   0  15  15  15  15  15   0  15  15  15  15  15  15  15  15  15  15  15  15  15  15  15  15  15  15  15  15  15  15  15  15  15   0  15   0  15  15  15  15  15  15  15  15   0  15  15  15  15   0  15  15   0  15   0  15  15  15  15  15   0  15  15  15  15  15  15  15   0  15  15  15  15  15  15   0  15  15  15  15  15   0  15  15  15  15  15  15  15   0  15  15   0   0  15  15  15  15  15  15  15  15  15  15  15  15  15  15  15   0  15  15  15  15   0  15  15  15  15  15  15   0  15  15  15   0   0  15  15  15   0  15  15   0  15  15  15  15  15  15  15   0   0  15  15  15  15  15  15  15  15  15   0   0  15  15  15  15  15  15   0  15  15   0  15  15  15  15  15  15   0   0  15  15  15  15   0  15   0  15   0   0  15  15   0  15  15   0   0   0   0  15  15  15  15  15  15  15  15   0  15  15  15  15   0  15  15  15  15   0  15  15  15  15  15  15  15   0  15  15  15  15  15  15   0  15  15  15  15  15  15  15  15  15   0  15   0  15  15  15  15  15  15   0   0   0  15  15  15   0  15  15  15   0  15  15  15  15  15   0  15  15  15  15  15   0  15  15  15  15  15  15  15  15   0   0  15  15  15  15  15   0  15  15  15  15  15  15   0  15  15  15  15  15  15  15  15  15  15  15   0  15  15  15  15   0  15  15  15  15  15  15  15  15  15   0   0   0   0  15   0  15  15   0  15  15   0   0  15  15  15   0  15  15  15   0  15   0  15  15   0  15  15  15  15  15  15  15  15   0  15  15  15  15  15   0  15  15  15  15  15  15  15  15   0  15  15   0   0  15  15  15  15  15  15   0   0   0  15  15  15  15  15  15  15  15  15  15  15   0  15  15  15   0  15  15  15   0   0  15  15  15  15  15   0   0  15  15   0  15  15   0  15   0   0  15  15  15   0   0  15   0  15  15  15  15  15   0  15  15  15  15   0  15   0   0  15  15  15  15  15  15  15  15  15  15   0  15  15  15  15  15   0  15  15   0  15  15  15  15  15  15   0   0  15  15  15  15  15  15  15  15  15  15   0  15  15  15   0  15  15  15  15   0  15  15  15  15  15   0

************************************************************************
